NAME : eil23.66.649.tour
COMMENT : Length = 649
COMMENT : Found by LKH [Keld Helsgaun] Tue Dec 11 00:02:38 2018
TYPE : TOUR
DIMENSION : 24
TOUR_SECTION
1
20
21
23
18
15
17
3
2
12
8
9
6
5
22
19
24
14
11
10
7
4
16
13
-1
EOF
